words_hard_train/4095.qaiger
aag 78 16 0 1 62
2
4
8
12
24
26
30
34
38
48
74
82
84
88
102
132
156
6 2 4
10 6 8
14 10 13
16 11 12
18 15 17
20 3 5
22 21 7
28 25 27
32 28 31
36 32 35
40 37 38
42 36 39
44 41 43
46 22 44
50 43 48
52 42 49
54 51 53
56 7 9
58 57 11
60 54 58
62 47 61
64 33 34
66 65 37
68 67 2
70 29 30
72 71 33
76 72 74
78 66 3
80 77 79
86 82 85
90 88 24
92 87 91
94 89 25
96 93 95
98 24 26
100 99 29
104 101 103
106 96 105
108 100 102
110 107 109
112 73 75
114 111 113
116 80 115
118 69 117
120 23 45
122 118 121
124 62 123
126 55 59
128 125 127
130 19 129
134 52 132
136 134 84
138 130 137
140 18 128
142 136 140
144 139 143
146 53 133
148 85 132
150 148 52
152 147 151
154 153 141
156 144 155
i0 1 x2[4]
i1 1 x2[5]
i2 1 x2[6]
i3 1 x2[7]
i4 2 y1[1]
i5 2 y1[2]
i6 2 y1[3]
i7 2 y1[4]
i8 2 y1[5]
i9 2 y1[6]
i10 1 x2[3]
i11 1 x2[0]
i12 2 y1[0]
i13 1 x2[1]
i14 1 x2[2]
i15 2 y1[7]
o0 bv[0]
c
simplified
  >=
    add
      1 x2
      << 4
        1
    subtract
      2 y1
      1
