words_hard_train/4095.qaiger.qdimacs
p cnf 78 187
a 1 2 4 37 6 41 44 51 0
e 3 5 7 8 9 10 11 12 13 14 15 16 17 18 19 20 21 22 23 24 25 26 27 28 29 30 31 32 33 34 35 36 38 39 40 42 43 45 46 47 48 49 50 52 53 54 55 56 57 58 59 60 61 62 63 64 65 66 67 68 69 70 71 72 73 74 75 76 77 78 0
-1 -2 3 0
1 -3 0
2 -3 0
-3 -4 5 0
3 -5 0
4 -5 0
-5 6 7 0
5 -7 0
-6 -7 0
5 -6 8 0
-5 -8 0
6 -8 0
7 8 9 0
-7 -9 0
-8 -9 0
1 2 10 0
-1 -10 0
-2 -10 0
10 3 11 0
-10 -11 0
-3 -11 0
12 13 14 0
-12 -14 0
-13 -14 0
-14 15 16 0
14 -16 0
-15 -16 0
-16 17 18 0
16 -18 0
-17 -18 0
18 -19 20 0
-18 -20 0
19 -20 0
-18 19 21 0
18 -21 0
-19 -21 0
20 21 22 0
-20 -22 0
-21 -22 0
-11 -22 23 0
11 -23 0
22 -23 0
21 -24 25 0
-21 -25 0
24 -25 0
-21 24 26 0
21 -26 0
-24 -26 0
25 26 27 0
-25 -27 0
-26 -27 0
3 4 28 0
-3 -28 0
-4 -28 0
28 5 29 0
-28 -29 0
-5 -29 0
-27 -29 30 0
27 -30 0
29 -30 0
23 30 31 0
-23 -31 0
-30 -31 0
16 -17 32 0
-16 -32 0
17 -32 0
32 18 33 0
-32 -33 0
-18 -33 0
33 -1 34 0
-33 -34 0
1 -34 0
14 -15 35 0
-14 -35 0
15 -35 0
35 16 36 0
-35 -36 0
-16 -36 0
-36 -37 38 0
36 -38 0
37 -38 0
-33 1 39 0
33 -39 0
-1 -39 0
38 39 40 0
-38 -40 0
-39 -40 0
-41 42 43 0
41 -43 0
-42 -43 0
-44 -12 45 0
44 -45 0
12 -45 0
43 45 46 0
-43 -46 0
-45 -46 0
44 12 47 0
-44 -47 0
-12 -47 0
46 47 48 0
-46 -48 0
-47 -48 0
-12 -13 49 0
12 -49 0
13 -49 0
49 14 50 0
-49 -50 0
-14 -50 0
50 51 52 0
-50 -52 0
-51 -52 0
-48 52 53 0
48 -53 0
-52 -53 0
-50 -51 54 0
50 -54 0
51 -54 0
53 54 55 0
-53 -55 0
-54 -55 0
36 37 56 0
-36 -56 0
-37 -56 0
55 56 57 0
-55 -57 0
-56 -57 0
-40 57 58 0
40 -58 0
-57 -58 0
34 58 59 0
-34 -59 0
-58 -59 0
11 22 60 0
-11 -60 0
-22 -60 0
-59 60 61 0
59 -61 0
-60 -61 0
-31 61 62 0
31 -62 0
-61 -62 0
27 29 63 0
-27 -63 0
-29 -63 0
62 63 64 0
-62 -64 0
-63 -64 0
9 64 65 0
-9 -65 0
-64 -65 0
-26 -66 67 0
26 -67 0
66 -67 0
-67 -42 68 0
67 -68 0
42 -68 0
-65 68 69 0
65 -69 0
-68 -69 0
-9 -64 70 0
9 -70 0
64 -70 0
-68 -70 71 0
68 -71 0
70 -71 0
69 71 72 0
-69 -72 0
-71 -72 0
26 66 73 0
-26 -73 0
-66 -73 0
42 -66 74 0
-42 -74 0
66 -74 0
-74 -26 75 0
74 -75 0
26 -75 0
73 75 76 0
-73 -76 0
-75 -76 0
76 70 77 0
-76 -77 0
-70 -77 0
-72 77 78 0
72 -78 0
-77 -78 0
78 0
